networks/zoo_89_396/zoo_89_396.txt
Number of groups: 37
Flow 15: {3 37} {37 36} {36 81} 
Flow 44: {2 1} {1 13} {13 14} {14 11} {11 19} 
Flow 51: {7 2} {2 28} {28 35} {35 34} {34 79} 
Flow 61: {1 4} {4 3} {3 15} 
Flow 78: {13 27} 
Flow 87: {10 6} {6 7} {7 52} 
Flow 91: {10 9} {9 41} {41 42} {42 44} {44 37} 
Flow 97: {11 14} {14 15} {15 37} {37 82} 
Flow 123: {5 40} {40 39} {39 84} 
Flow 137: {25 23} 
Flow 154: {4 1} {1 2} {2 47} 
Flow 172: {19 20} {20 21} {21 66} 
Flow 173: {19 18} {18 25} {25 70} 
Flow 198: {25 18} {18 17} {17 15} {15 3} {3 48} 
Flow 206: {21 20} {20 19} {19 64} 
Flow 207: {21 23} {23 68} 
Flow 213: {32 34} 
Flow 217: {21 25} {25 22} {22 14} {14 13} 
Flow 218: {18 36} {36 37} {37 44} {44 42} {42 87} 
Flow 229: {15 16} {16 61} 
Flow 256: {26 27} {27 32} {32 33} {33 35} {35 80} 
Flow 271: {30 38} {38 83} 
Flow 274: {31 28} {28 2} {2 7} {7 6} 
Flow 277: {35 33} {33 32} {32 22} {22 25} {25 21} 
Flow 283: {34 32} {32 27} {27 13} {13 1} {1 46} 
Flow 284: {34 35} {35 28} 
Flow 296: {34 33} {33 78} 
Flow 305: {37 3} {3 4} {4 49} 
Flow 308: {42 41} {41 9} {9 54} 
Flow 309: {36 18} {18 19} {19 11} {11 56} 
Flow 313: {35 29} {29 74} 
Flow 332: {9 6} {6 5} {5 38} {38 30} {30 75} 
Flow 333: {37 15} {15 14} {14 22} {22 32} {32 77} 
Flow 342: {39 38} {38 5} {5 50} 
Flow 356: {40 5} {5 6} {6 9} 
Flow 391: {45 36} {36 16} {16 15} {15 60} 
Flow 396: {45 44} {44 89} 
Time taken running everything: 62 seconds
