networks/zoo_89_396/zoo_89_396.sol
<?xml version = "1.0" encoding="UTF-8" standalone="yes"?>
<CPLEXSolution version="1.2">
 <header
   problemName="networks/zoo_89_396/zoo_89_396.lp"
   solutionName="incumbent"
   solutionIndex="-1"
   objectiveValue="37"
   solutionTypeValue="3"
   solutionTypeString="primal"
   solutionStatusValue="101"
   solutionStatusString="integer optimal solution"
   solutionMethodString="mip"
   primalFeasible="1"
   dualFeasible="1"
   MIPNodes="1738"
   MIPIterations="405856"
   writeLevel="3"/>
 <quality
   epInt="1.0000000000000001e-05"
   epRHS="9.9999999999999995e-07"
   maxIntInfeas="0"
   maxPrimalInfeas="1.7763568394002505e-15"
   maxX="4.0000000000000009"
   maxSlack="10"/>
 <variables>
  <variable name="Y(15,36)" index="970" value="1"/>
  <variable name="Y(44,11)" index="2890" value="1"/>
  <variable name="Y(51,34)" index="3380" value="1"/>
  <variable name="Y(61,3)" index="4022" value="1"/>
  <variable name="Y(78,13)" index="5169" value="1"/>
  <variable name="Y(87,7)" index="5768" value="1"/>
  <variable name="Y(91,44)" index="6069" value="1"/>
  <variable name="Y(97,37)" index="6465" value="1"/>
  <variable name="Y(123,39)" index="8209" value="1"/>
  <variable name="Y(137,25)" index="9133" value="1"/>
  <variable name="Y(154,2)" index="10252" value="1"/>
  <variable name="Y(172,21)" index="11475" value="1"/>
  <variable name="Y(173,25)" index="11545" value="1"/>
  <variable name="Y(198,3)" index="13201" value="1"/>
  <variable name="Y(206,19)" index="13751" value="1"/>
  <variable name="Y(207,23)" index="13822" value="1"/>
  <variable name="Y(213,32)" index="14232" value="1"/>
  <variable name="Y(217,14)" index="14483" value="1"/>
  <variable name="Y(218,42)" index="14577" value="1"/>
  <variable name="Y(229,16)" index="15289" value="1"/>
  <variable name="Y(256,35)" index="17116" value="1"/>
  <variable name="Y(271,38)" index="18124" value="1"/>
  <variable name="Y(274,7)" index="18297" value="1"/>
  <variable name="Y(277,25)" index="18513" value="1"/>
  <variable name="Y(283,1)" index="18894" value="1"/>
  <variable name="Y(284,35)" index="18992" value="1"/>
  <variable name="Y(296,33)" index="19794" value="1"/>
  <variable name="Y(305,4)" index="20371" value="1"/>
  <variable name="Y(308,9)" index="20576" value="1"/>
  <variable name="Y(309,11)" index="20645" value="1"/>
  <variable name="Y(313,29)" index="20929" value="1"/>
  <variable name="Y(332,30)" index="22203" value="1"/>
  <variable name="Y(333,32)" index="22272" value="1"/>
  <variable name="Y(342,5)" index="22851" value="1"/>
  <variable name="Y(356,6)" index="23790" value="1"/>
  <variable name="Y(391,15)" index="26142" value="1"/>
  <variable name="Y(396,44)" index="26504" value="1"/>
  <variable name="X(1,2,154)" index="26685" value="1"/>
  <variable name="X(1,4,61)" index="26988" value="1"/>
  <variable name="X(1,13,44)" index="27367" value="1"/>
  <variable name="X(1,46,283)" index="28002" value="1"/>
  <variable name="X(2,1,44)" index="28159" value="1"/>
  <variable name="X(2,7,274)" index="28785" value="1"/>
  <variable name="X(2,28,51)" index="28958" value="1"/>
  <variable name="X(2,47,154)" index="29457" value="1"/>
  <variable name="X(3,4,305)" index="30004" value="1"/>
  <variable name="X(3,15,61)" index="30156" value="1"/>
  <variable name="X(3,37,15)" index="30506" value="1"/>
  <variable name="X(3,48,198)" index="31085" value="1"/>
  <variable name="X(4,1,154)" index="31437" value="1"/>
  <variable name="X(4,3,61)" index="31740" value="1"/>
  <variable name="X(4,49,305)" index="32380" value="1"/>
  <variable name="X(5,6,356)" index="32827" value="1"/>
  <variable name="X(5,38,332)" index="33199" value="1"/>
  <variable name="X(5,40,123)" index="33386" value="1"/>
  <variable name="X(5,50,342)" index="34001" value="1"/>
  <variable name="X(6,5,332)" index="34387" value="1"/>
  <variable name="X(6,7,87)" index="34538" value="1"/>
  <variable name="X(6,9,356)" index="35203" value="1"/>
  <variable name="X(7,2,51)" index="35294" value="1"/>
  <variable name="X(7,6,274)" index="35913" value="1"/>
  <variable name="X(7,52,87)" index="36122" value="1"/>
  <variable name="X(9,6,332)" index="36763" value="1"/>
  <variable name="X(9,41,91)" index="36918" value="1"/>
  <variable name="X(9,54,308)" index="37531" value="1"/>
  <variable name="X(10,6,87)" index="37706" value="1"/>
  <variable name="X(10,9,91)" index="38106" value="1"/>
  <variable name="X(11,14,97)" index="38508" value="1"/>
  <variable name="X(11,19,44)" index="38851" value="1"/>
  <variable name="X(11,56,309)" index="39512" value="1"/>
  <variable name="X(13,1,283)" index="39882" value="1"/>
  <variable name="X(13,14,44)" index="40039" value="1"/>
  <variable name="X(13,27,78)" index="40469" value="1"/>
  <variable name="X(14,11,44)" index="40831" value="1"/>
  <variable name="X(14,13,217)" index="41400" value="1"/>
  <variable name="X(14,15,97)" index="41676" value="1"/>
  <variable name="X(14,22,333)" index="42308" value="1"/>
  <variable name="X(15,3,198)" index="42569" value="1"/>
  <variable name="X(15,14,333)" index="43100" value="1"/>
  <variable name="X(15,16,229)" index="43392" value="1"/>
  <variable name="X(15,37,97)" index="43656" value="1"/>
  <variable name="X(15,60,391)" index="44346" value="1"/>
  <variable name="X(16,15,391)" index="44742" value="1"/>
  <variable name="X(16,61,229)" index="44976" value="1"/>
  <variable name="X(17,15,198)" index="45341" value="1"/>
  <variable name="X(18,17,198)" index="45737" value="1"/>
  <variable name="X(18,19,309)" index="46244" value="1"/>
  <variable name="X(18,25,173)" index="46504" value="1"/>
  <variable name="X(18,36,218)" index="46945" value="1"/>
  <variable name="X(19,11,309)" index="47432" value="1"/>
  <variable name="X(19,18,173)" index="47692" value="1"/>
  <variable name="X(19,20,172)" index="48087" value="1"/>
  <variable name="X(19,64,206)" index="48517" value="1"/>
  <variable name="X(20,19,206)" index="48913" value="1"/>
  <variable name="X(20,21,172)" index="49275" value="1"/>
  <variable name="X(21,20,206)" index="49705" value="1"/>
  <variable name="X(21,23,207)" index="50102" value="1"/>
  <variable name="X(21,25,217)" index="50508" value="1"/>
  <variable name="X(21,66,172)" index="50859" value="1"/>
  <variable name="X(22,14,217)" index="51300" value="1"/>
  <variable name="X(22,25,277)" index="51756" value="1"/>
  <variable name="X(22,32,333)" index="52208" value="1"/>
  <variable name="X(23,68,207)" index="52478" value="1"/>
  <variable name="X(25,18,198)" index="52865" value="1"/>
  <variable name="X(25,21,277)" index="53340" value="1"/>
  <variable name="X(25,22,217)" index="53676" value="1"/>
  <variable name="X(25,23,137)" index="53992" value="1"/>
  <variable name="X(25,70,173)" index="54424" value="1"/>
  <variable name="X(26,27,256)" index="54903" value="1"/>
  <variable name="X(27,13,283)" index="55326" value="1"/>
  <variable name="X(27,32,256)" index="55695" value="1"/>
  <variable name="X(28,2,274)" index="56109" value="1"/>
  <variable name="X(28,35,51)" index="56282" value="1"/>
  <variable name="X(29,74,313)" index="56940" value="1"/>
  <variable name="X(30,38,271)" index="57294" value="1"/>
  <variable name="X(30,75,332)" index="57751" value="1"/>
  <variable name="X(31,28,274)" index="58089" value="1"/>
  <variable name="X(32,22,277)" index="58488" value="1"/>
  <variable name="X(32,27,283)" index="58890" value="1"/>
  <variable name="X(32,33,256)" index="59259" value="1"/>
  <variable name="X(32,34,213)" index="59612" value="1"/>
  <variable name="X(32,77,333)" index="60128" value="1"/>
  <variable name="X(33,32,277)" index="60468" value="1"/>
  <variable name="X(33,35,256)" index="60843" value="1"/>
  <variable name="X(33,78,296)" index="61279" value="1"/>
  <variable name="X(34,32,283)" index="61662" value="1"/>
  <variable name="X(34,33,296)" index="62071" value="1"/>
  <variable name="X(34,35,284)" index="62455" value="1"/>
  <variable name="X(34,79,51)" index="62618" value="1"/>
  <variable name="X(35,28,284)" index="63247" value="1"/>
  <variable name="X(35,29,313)" index="63672" value="1"/>
  <variable name="X(35,33,277)" index="64032" value="1"/>
  <variable name="X(35,34,51)" index="64202" value="1"/>
  <variable name="X(35,80,256)" index="64803" value="1"/>
  <variable name="X(36,16,391)" index="65334" value="1"/>
  <variable name="X(36,18,309)" index="65648" value="1"/>
  <variable name="X(36,37,218)" index="65953" value="1"/>
  <variable name="X(36,81,15)" index="66146" value="1"/>
  <variable name="X(37,3,305)" index="66832" value="1"/>
  <variable name="X(37,15,333)" index="67256" value="1"/>
  <variable name="X(37,36,15)" index="67334" value="1"/>
  <variable name="X(37,44,218)" index="67933" value="1"/>
  <variable name="X(37,82,97)" index="68208" value="1"/>
  <variable name="X(38,5,342)" index="68849" value="1"/>
  <variable name="X(38,30,332)" index="69235" value="1"/>
  <variable name="X(38,83,271)" index="69570" value="1"/>
  <variable name="X(39,38,342)" index="70037" value="1"/>
  <variable name="X(39,84,123)" index="70214" value="1"/>
  <variable name="X(40,5,356)" index="70843" value="1"/>
  <variable name="X(40,39,123)" index="71006" value="1"/>
  <variable name="X(41,9,308)" index="71587" value="1"/>
  <variable name="X(41,42,91)" index="71766" value="1"/>
  <variable name="X(42,41,308)" index="72379" value="1"/>
  <variable name="X(42,44,91)" index="72558" value="1"/>
  <variable name="X(42,87,218)" index="73081" value="1"/>
  <variable name="X(44,37,91)" index="73350" value="1"/>
  <variable name="X(44,42,218)" index="73873" value="1"/>
  <variable name="X(44,89,396)" index="74447" value="1"/>
  <variable name="X(45,36,391)" index="74838" value="1"/>
  <variable name="X(45,44,396)" index="75239" value="1"/>
  <variable name="C(15,37)" index="75305" value="1"/>
  <variable name="C(15,36)" index="75306" value="2"/>
  <variable name="C(44,1)" index="75450" value="1"/>
  <variable name="C(44,13)" index="75451" value="2"/>
  <variable name="C(44,14)" index="75452" value="3"/>
  <variable name="C(44,11)" index="75453" value="4"/>
  <variable name="C(51,2)" index="75502" value="1"/>
  <variable name="C(51,28)" index="75503" value="2"/>
  <variable name="C(51,35)" index="75504" value="3"/>
  <variable name="C(51,34)" index="75505" value="4"/>
  <variable name="C(61,4)" index="75551" value="1"/>
  <variable name="C(61,3)" index="75552" value="2"/>
  <variable name="C(87,6)" index="75692" value="1"/>
  <variable name="C(87,7)" index="75693" value="2"/>
  <variable name="C(91,9)" index="75715" value="1"/>
  <variable name="C(91,41)" index="75716" value="2"/>
  <variable name="C(91,42)" index="75717" value="3"/>
  <variable name="C(91,44)" index="75718" value="4"/>
  <variable name="C(97,14)" index="75747" value="1"/>
  <variable name="C(97,15)" index="75748" value="2"/>
  <variable name="C(97,37)" index="75749" value="2.9999999999999991"/>
  <variable name="C(123,40)" index="75871" value="1"/>
  <variable name="C(123,39)" index="75872" value="2"/>
  <variable name="C(154,1)" index="76029" value="1"/>
  <variable name="C(154,2)" index="76030" value="2"/>
  <variable name="C(172,20)" index="76132" value="1"/>
  <variable name="C(172,21)" index="76133" value="2"/>
  <variable name="C(173,19)" index="76134" value="2.0000000000000009"/>
  <variable name="C(173,18)" index="76135" value="3.0000000000000009"/>
  <variable name="C(173,25)" index="76136" value="4"/>
  <variable name="C(198,18)" index="76296" value="1"/>
  <variable name="C(198,17)" index="76297" value="2"/>
  <variable name="C(198,15)" index="76298" value="3"/>
  <variable name="C(198,3)" index="76299" value="4"/>
  <variable name="C(206,20)" index="76349" value="1"/>
  <variable name="C(206,19)" index="76350" value="2"/>
  <variable name="C(207,23)" index="76352" value="1"/>
  <variable name="C(217,25)" index="76404" value="1"/>
  <variable name="C(217,22)" index="76405" value="2"/>
  <variable name="C(217,14)" index="76406" value="3"/>
  <variable name="C(218,36)" index="76417" value="1"/>
  <variable name="C(218,37)" index="76418" value="2"/>
  <variable name="C(218,44)" index="76419" value="3"/>
  <variable name="C(218,42)" index="76420" value="4"/>
  <variable name="C(229,16)" index="76476" value="1"/>
  <variable name="C(256,27)" index="76604" value="1"/>
  <variable name="C(256,32)" index="76605" value="2"/>
  <variable name="C(256,33)" index="76606" value="3"/>
  <variable name="C(256,35)" index="76607" value="4"/>
  <variable name="C(271,38)" index="76716" value="0.99999999999999978"/>
  <variable name="C(274,28)" index="76729" value="1"/>
  <variable name="C(274,2)" index="76730" value="1.9999999999999982"/>
  <variable name="C(274,7)" index="76731" value="2.9999999999999982"/>
  <variable name="C(277,33)" index="76748" value="1"/>
  <variable name="C(277,32)" index="76749" value="2"/>
  <variable name="C(277,22)" index="76750" value="3.0000000000000009"/>
  <variable name="C(277,25)" index="76751" value="4.0000000000000009"/>
  <variable name="C(283,32)" index="76783" value="1"/>
  <variable name="C(283,27)" index="76784" value="2"/>
  <variable name="C(283,13)" index="76785" value="3"/>
  <variable name="C(283,1)" index="76786" value="4"/>
  <variable name="C(284,35)" index="76788" value="1"/>
  <variable name="C(296,33)" index="76850" value="1"/>
  <variable name="C(305,3)" index="76896" value="1"/>
  <variable name="C(305,4)" index="76897" value="2"/>
  <variable name="C(308,41)" index="76917" value="1"/>
  <variable name="C(308,9)" index="76918" value="2"/>
  <variable name="C(309,18)" index="76920" value="1"/>
  <variable name="C(309,19)" index="76921" value="2"/>
  <variable name="C(309,11)" index="76922" value="3"/>
  <variable name="C(313,29)" index="76940" value="1"/>
  <variable name="C(332,6)" index="77040" value="1"/>
  <variable name="C(332,5)" index="77041" value="2"/>
  <variable name="C(332,38)" index="77042" value="3"/>
  <variable name="C(332,30)" index="77043" value="4"/>
  <variable name="C(333,15)" index="77045" value="1"/>
  <variable name="C(333,14)" index="77046" value="2"/>
  <variable name="C(333,22)" index="77047" value="3"/>
  <variable name="C(333,32)" index="77048" value="4"/>
  <variable name="C(342,38)" index="77097" value="1"/>
  <variable name="C(342,5)" index="77098" value="2"/>
  <variable name="C(356,5)" index="77188" value="1"/>
  <variable name="C(356,6)" index="77189" value="2"/>
  <variable name="C(391,36)" index="77395" value="1"/>
  <variable name="C(391,16)" index="77396" value="2"/>
  <variable name="C(391,15)" index="77397" value="3"/>
  <variable name="C(396,44)" index="77425" value="1"/>
 </variables>
</CPLEXSolution>
